444supercell
 1.0000000000000000
     0.0000000000000000    2.0000000000000000    2.0000000000000000
     2.0000000000000000    0.0000000000000000    2.0000000000000000
     2.0000000000000000    2.0000000000000000    0.0000000000000000
  64  64
Direct
  0.0000000000000000  0.0000000000000000 -0.0000000000000000
  0.2500000000000000  0.7500000000000000  0.2500000000000000
  0.2500000000000000  0.7500000000000000 -0.0000000000000000
  0.7500000000000000  0.0000000000000000  0.2500000000000000
  0.2500000000000000  0.5000000000000000  0.7500000000000000
  0.2500000000000000  0.5000000000000000  0.5000000000000000
  0.7500000000000000  0.0000000000000000  0.5000000000000000
  0.7500000000000000  0.0000000000000000 -0.0000000000000000
  0.2500000000000000  0.5000000000000000  0.2500000000000000
  0.7500000000000000  0.0000000000000000  0.7500000000000000
  0.2500000000000000  0.2500000000000000  0.7500000000000000
  0.2500000000000000  0.2500000000000000  0.5000000000000000
  0.7500000000000000  0.2500000000000000 -0.0000000000000000
  0.2500000000000000  0.2500000000000000 -0.0000000000000000
  0.7500000000000000  0.2500000000000000  0.2500000000000000
  0.2500000000000000  0.5000000000000000 -0.0000000000000000
  0.2500000000000000  0.7500000000000000  0.5000000000000000
  0.2500000000000000  0.7500000000000000  0.7500000000000000
  0.7500000000000000  0.7500000000000000  0.7500000000000000
  0.5000000000000000  0.5000000000000000  0.2500000000000000
  0.5000000000000000  0.5000000000000000  0.7500000000000000
  0.5000000000000000  0.5000000000000000 -0.0000000000000000
  0.5000000000000000  0.2500000000000000  0.7500000000000000
  0.5000000000000000  0.7500000000000000 -0.0000000000000000
  0.5000000000000000  0.2500000000000000  0.5000000000000000
  0.5000000000000000  0.2500000000000000  0.2500000000000000
  0.5000000000000000  0.7500000000000000  0.2500000000000000
  0.5000000000000000  0.2500000000000000 -0.0000000000000000
  0.5000000000000000  0.0000000000000000  0.7500000000000000
  0.5000000000000000  0.7500000000000000  0.5000000000000000
  0.5000000000000000  0.0000000000000000  0.5000000000000000
  0.5000000000000000  0.0000000000000000  0.2500000000000000
  0.5000000000000000  0.7500000000000000  0.7500000000000000
  0.5000000000000000  0.0000000000000000 -0.0000000000000000
  0.2500000000000000  0.0000000000000000  0.7500000000000000
  0.2500000000000000  0.0000000000000000  0.5000000000000000
  0.2500000000000000  0.2500000000000000  0.2500000000000000
  0.0000000000000000  0.5000000000000000  0.2500000000000000
  0.7500000000000000  0.5000000000000000  0.5000000000000000
  0.7500000000000000  0.2500000000000000  0.5000000000000000
  0.0000000000000000  0.5000000000000000 -0.0000000000000000
  0.7500000000000000  0.5000000000000000  0.7500000000000000
  0.0000000000000000  0.2500000000000000  0.7500000000000000
  0.0000000000000000  0.2500000000000000  0.5000000000000000
  0.0000000000000000  0.5000000000000000  0.5000000000000000
  0.7500000000000000  0.7500000000000000 -0.0000000000000000
  0.0000000000000000  0.2500000000000000 -0.0000000000000000
  0.7500000000000000  0.7500000000000000  0.2500000000000000
  0.0000000000000000  0.0000000000000000  0.7500000000000000
  0.0000000000000000  0.0000000000000000  0.5000000000000000
  0.7500000000000000  0.7500000000000000  0.5000000000000000
  0.0000000000000000  0.0000000000000000  0.2500000000000000
  0.0000000000000000  0.2500000000000000  0.2500000000000000
  0.0000000000000000  0.5000000000000000  0.7500000000000000
  0.5000000000000000  0.5000000000000000  0.5000000000000000
  0.7500000000000000  0.2500000000000000  0.7500000000000000
  0.7500000000000000  0.5000000000000000  0.2500000000000000
  0.2500000000000000  0.0000000000000000  0.2500000000000000
  0.0000000000000000  0.7500000000000000 -0.0000000000000000
  0.0000000000000000  0.7500000000000000  0.2500000000000000
  0.2500000000000000  0.0000000000000000 -0.0000000000000000
  0.0000000000000000  0.7500000000000000  0.7500000000000000
  0.7500000000000000  0.5000000000000000 -0.0000000000000000
  0.0000000000000000  0.7500000000000000  0.5000000000000000
  0.5625000000000000  0.5625000000000000  0.5625000000000000
  0.5625000000000000  0.8125000000000000  0.0625000000000000
  0.8125000000000000  0.0625000000000000  0.3125000000000000
  0.5625000000000000  0.5625000000000000  0.8125000000000000
  0.8125000000000000  0.3125000000000000  0.5625000000000000
  0.8125000000000000  0.8125000000000000  0.5625000000000000
  0.8125000000000000  0.3125000000000000  0.0625000000000000
  0.8125000000000000  0.8125000000000000  0.3125000000000000
  0.8125000000000000  0.0625000000000000  0.8125000000000000
  0.5625000000000000  0.8125000000000000  0.3125000000000000
  0.8125000000000000  0.3125000000000000  0.8125000000000000
  0.5625000000000000  0.8125000000000000  0.5625000000000000
  0.8125000000000000  0.5625000000000000  0.8125000000000000
  0.8125000000000000  0.0625000000000000  0.5625000000000000
  0.8125000000000000  0.5625000000000000  0.5625000000000000
  0.5625000000000000  0.8125000000000000  0.8125000000000000
  0.8125000000000000  0.5625000000000000  0.0625000000000000
  0.8125000000000000  0.0625000000000000  0.0625000000000000
  0.8125000000000000  0.5625000000000000  0.3125000000000000
  0.8125000000000000  0.8125000000000000  0.0625000000000000
  0.8125000000000000  0.3125000000000000  0.3125000000000000
  0.3125000000000000  0.8125000000000000  0.8125000000000000
  0.5625000000000000  0.5625000000000000  0.0625000000000000
  0.3125000000000000  0.0625000000000000  0.0625000000000000
  0.0625000000000000  0.8125000000000000  0.8125000000000000
  0.0625000000000000  0.8125000000000000  0.5625000000000000
  0.0625000000000000  0.8125000000000000  0.3125000000000000
  0.0625000000000000  0.8125000000000000  0.0625000000000000
  0.0625000000000000  0.5625000000000000  0.8125000000000000
  0.0625000000000000  0.5625000000000000  0.5625000000000000
  0.0625000000000000  0.5625000000000000  0.3125000000000000
  0.0625000000000000  0.5625000000000000  0.0625000000000000
  0.0625000000000000  0.3125000000000000  0.8125000000000000
  0.0625000000000000  0.3125000000000000  0.5625000000000000
  0.0625000000000000  0.3125000000000000  0.3125000000000000
  0.0625000000000000  0.3125000000000000  0.0625000000000000
  0.0625000000000000  0.0625000000000000  0.8125000000000000
  0.0625000000000000  0.0625000000000000  0.5625000000000000
  0.0625000000000000  0.0625000000000000  0.3125000000000000
  0.0625000000000000  0.0625000000000000  0.0625000000000000
  0.3125000000000000  0.0625000000000000  0.3125000000000000
  0.3125000000000000  0.0625000000000000  0.5625000000000000
  0.3125000000000000  0.0625000000000000  0.8125000000000000
  0.3125000000000000  0.3125000000000000  0.0625000000000000
  0.5625000000000000  0.3125000000000000  0.8125000000000000
  0.5625000000000000  0.3125000000000000  0.5625000000000000
  0.5625000000000000  0.3125000000000000  0.3125000000000000
  0.5625000000000000  0.3125000000000000  0.0625000000000000
  0.5625000000000000  0.0625000000000000  0.8125000000000000
  0.5625000000000000  0.0625000000000000  0.5625000000000000
  0.5625000000000000  0.0625000000000000  0.3125000000000000
  0.5625000000000000  0.0625000000000000  0.0625000000000000
  0.5625000000000000  0.5625000000000000  0.3125000000000000
  0.3125000000000000  0.8125000000000000  0.5625000000000000
  0.3125000000000000  0.8125000000000000  0.0625000000000000
  0.3125000000000000  0.5625000000000000  0.8125000000000000
  0.3125000000000000  0.5625000000000000  0.5625000000000000
  0.3125000000000000  0.5625000000000000  0.3125000000000000
  0.3125000000000000  0.5625000000000000  0.0625000000000000
  0.3125000000000000  0.3125000000000000  0.8125000000000000
  0.3125000000000000  0.3125000000000000  0.5625000000000000
  0.3125000000000000  0.3125000000000000  0.3125000000000000
  0.3125000000000000  0.8125000000000000  0.3125000000000000
  0.8125000000000000  0.8125000000000000  0.8125000000000000
